NAME : lrc204.818661.tour
COMMENT : Cost = 0_818661
COMMENT : Found by LKH [Keld Helsgaun] Fri Sep 15 17:42:02 2017
TYPE : TOUR
DIMENSION : 105
TOUR_SECTION
1
82
55
73
42
41
37
36
38
39
40
43
45
44
2
102
4
6
46
47
9
8
80
74
79
61
7
5
3
89
56
101
71
62
69
105
81
92
93
57
65
23
21
50
20
19
49
22
24
96
68
63
86
64
90
77
52
85
51
34
33
31
29
27
28
30
32
35
72
94
95
97
104
70
99
13
15
48
18
17
16
12
11
54
83
100
53
87
88
10
14
75
60
98
76
59
78
26
25
58
84
103
67
66
91
-1
EOF
